
Gurobi 11.0.3 (linux64) logging started Thu Nov 21 17:21:48 2024

Set parameter LogFile to value "/home/yihong/Coding/OR_SUC/SUC_results_bigM100000_thread4/case24_ieee_rts_theta0.5_epsilon0.025_gurobi_seed190000_num_gen100_N_WDR100_load_scaling_factor1_proposed_T20quadra_cost.txt"
Set parameter TimeLimit to value 3600
Gurobi Optimizer version 11.0.3 build v11.0.3rc0 (linux64 - "Ubuntu 20.04.6 LTS")

CPU model: AMD EPYC 7532 32-Core Processor, instruction set [SSE2|AVX|AVX2]
Thread count: 64 physical cores, 128 logical processors, using up to 4 threads

Optimize a model with 43202 rows, 24901 columns and 590362 nonzeros
Model fingerprint: 0xfeaf89ef
Model has 2000 quadratic constraints
Variable types: 22901 continuous, 2000 integer (2000 binary)
Coefficient statistics:
  Matrix range     [3e-04, 2e+03]
  QMatrix range    [2e-03, 8e-03]
  QLMatrix range   [3e-01, 6e+01]
  Objective range  [1e+00, 1e+00]
  Bounds range     [1e+00, 1e+00]
  RHS range        [1e+00, 9e+03]
Presolve removed 35053 rows and 10816 columns
Presolve time: 0.20s
Presolved: 8149 rows, 14085 columns, 51732 nonzeros
Presolved model has 2000 quadratic constraint(s)
Variable types: 12085 continuous, 2000 integer (2000 binary)

Root relaxation: objective 6.379309e+04, 6632 iterations, 0.15 seconds (0.20 work units)

    Nodes    |    Current Node    |     Objective Bounds      |     Work
 Expl Unexpl |  Obj  Depth IntInf | Incumbent    BestBd   Gap | It/Node Time

H    0     0                    589942.42715 63793.0930  89.2%     -    0s
*    0     0               0    589942.42715 63793.0930  89.2%     -    0s
     0     0 370702.122    0  614 589942.427 370702.122  37.2%     -    0s
     0     0 561837.209    0  249 589942.427 561837.209  4.76%     -    1s
     0     0 561911.905    0   54 589942.427 561911.905  4.75%     -    1s
     0     0 561983.957    0   50 589942.427 561983.957  4.74%     -    1s
     0     0 561984.687    0   51 589942.427 561984.687  4.74%     -    1s
     0     0 561985.197    0   51 589942.427 561985.197  4.74%     -    1s
     0     2 561985.197    0   51 589942.427 561985.197  4.74%     -    2s
H  404   440                    562127.22916 561996.901  0.02%  20.1    4s
*  404   440              71    562127.22916 561996.901  0.02%  20.1    4s

Cutting planes:
  Gomory: 69
  Lift-and-project: 13
  Implied bound: 253
  MIR: 21
  Flow cover: 76
  RLT: 319
  Relax-and-lift: 87

Explored 582 nodes (29048 simplex iterations) in 5.35 seconds (6.76 work units)
Thread count was 4 (of 128 available processors)

Solution count 3: 562127 562127 589942 

Optimal solution found (tolerance 1.00e-03)
Warning: max constraint violation (1.8694e-08) exceeds tolerance
Best objective 5.621272291578e+05, best bound 5.619969005743e+05, gap 0.0232%
